1 1448 9
2 1356 9
3 1269 9
7 1211 9
24 1186 9
117 1178 9
182 1165 9
764 1141 9



1 1564 10
2 1350 9
3 1268 9
5 1254 9
7 1250 9
11 1230 9
13 1209 9
45 1203 9
145 1161 9
290 1154 9
994 1146 9



1 1593 10
2 1332 9
3 1271 9
4 1268 9
11 1229 9
14 1224 9
19 1220 9
39 1203 9
52 1182 9
77 1164 9
293 1151 9
303 1143 9
871 1141 9



1 1536 9
2 1387 9
3 1289 9
4 1254 9
8 1221 9
12 1195 9
17 1190 9
24 1173 9
238 1167 9
358 1163 9
459 1157 9



1 1599 10
2 1424 10
3 1332 9
4 1321 9
6 1262 9
9 1254 9
11 1253 9
16 1252 9
18 1216 9
21 1202 9
31 1193 9
33 1187 9
90 1157 9
176 1151 9
244 1147 9



